\ENCODING=ISO-8859-1
\Problem name: IloCplex

Maximize
 obj1:
Subject To
 c1: 92 x_1 + 89 x_2 + 87 x_3 + 84 x_4 + 82 x_5 + 82 x_6 + 81 x_7 + 75 x_8
     + 73 x_9 + 71 x_10 + 67 x_11 + 67 x_12 + 63 x_13 + 59 x_14 + 57 x_15
     + 56 x_16 + 52 x_17 + 49 x_18 + 48 x_19 + 47 x_20 + 46 x_21 + 41 x_22
     + 39 x_23 + 38 x_24 + 36 x_25 + 35 x_26 + 34 x_27 + 34 x_28 + 30 x_29
     + 29 x_30 + 26 x_31 + 21 x_32 + 20 x_33 + 19 x_34 + 18 x_35 + 15 x_36
     + 15 x_37 + 13 x_38 + 11 x_39 + 10 x_40 + 10 x_41 + 10 x_42 + 9 x_43
     + 8 x_44 + 8 x_45 + 7 x_46 + 6 x_47 + 6 x_48 + 6 x_49 + 3 x_50 <= 100
Bounds
 0 <= x_1 <= 1
 0 <= x_2 <= 1
 0 <= x_3 <= 1
 0 <= x_4 <= 1
 0 <= x_5 <= 1
 0 <= x_6 <= 1
 0 <= x_7 <= 1
 0 <= x_8 <= 1
 0 <= x_9 <= 1
 0 <= x_10 <= 1
 0 <= x_11 <= 1
 0 <= x_12 <= 1
 0 <= x_13 <= 1
 0 <= x_14 <= 1
 0 <= x_15 <= 1
 0 <= x_16 <= 1
 0 <= x_17 <= 1
 0 <= x_18 <= 1
 0 <= x_19 <= 1
 0 <= x_20 <= 1
 0 <= x_21 <= 1
 0 <= x_22 <= 1
 0 <= x_23 <= 1
 0 <= x_24 <= 1
 0 <= x_25 <= 1
 0 <= x_26 <= 1
 0 <= x_27 <= 1
 0 <= x_28 <= 1
 0 <= x_29 <= 1
 0 <= x_30 <= 1
 0 <= x_31 <= 1
 0 <= x_32 <= 1
 0 <= x_33 <= 1
 0 <= x_34 <= 1
 0 <= x_35 <= 1
 0 <= x_36 <= 1
 0 <= x_37 <= 1
 0 <= x_38 <= 1
 0 <= x_39 <= 1
 0 <= x_40 <= 1
 0 <= x_41 <= 1
 0 <= x_42 <= 1
 0 <= x_43 <= 1
 0 <= x_44 <= 1
 0 <= x_45 <= 1
 0 <= x_46 <= 1
 0 <= x_47 <= 1
 0 <= x_48 <= 1
 0 <= x_49 <= 1
 0 <= x_50 <= 1
Binaries
 x_1  x_2  x_3  x_4  x_5  x_6  x_7  x_8  x_9  x_10  x_11  x_12  x_13  x_14 
 x_15  x_16  x_17  x_18  x_19  x_20  x_21  x_22  x_23  x_24  x_25  x_26  x_27 
 x_28  x_29  x_30  x_31  x_32  x_33  x_34  x_35  x_36  x_37  x_38  x_39  x_40 
 x_41  x_42  x_43  x_44  x_45  x_46  x_47  x_48  x_49  x_50 
End
